(set-option :print-success false)
(set-logic QF_UF)
(declare-sort x95 0)
(declare-sort x15 0)
(declare-fun x21 () x15)
(declare-fun x115 () x15)
(declare-fun x14 () x15)
(declare-fun x91 () x15)
(declare-fun x127 (x15 x15) x15)
(declare-fun x7 (x15 x15) x15)
(declare-fun x36 () x15)
(assert (let ((x43 (x7 x115 x91)) (x147 (x7 x36 x115)) (x143 (x7 x91 x115)) (x76 (x7 x115 x14)) (x41 (x7 x21 x36)) (x23 (x7 x14 x36)) (x55 (not (= x14 (x7 x14 x14)))) (x38 (x7 x115 x21)) (x22 (x7 x91 x36)) (x20 (x7 x36 x91)) (x25 (not (= x91 (x7 x91 x91)))) (x106 (x7 x36 x21)) (x130 (not (= x36 (x7 x36 x36)))) (x124 (x7 x14 x115)) (x58 (x7 x36 x14)) (x135 (x7 x21 x14)) (x111 (x7 x21 x91)) (x5 (x7 x21 x115)) (x97 (x7 x14 x91)) (x101 (x7 x91 x21)) (x61 (not (= (x7 x115 x115) x115))) (x151 (x7 x91 x14)) (x92 (x7 x115 x36)) (x30 (x7 x14 x21)) (x8 (not (= (x7 x21 x21) x21)))) (or (and (and (and (not (= x36 x23)) (and (not (= x91 x97)) (and (not (= x124 x115)) (not (= x21 x30))))) x55) (and x55 (and (and (and (not (= x135 x21)) (not (= x115 x76))) (not (= x151 x91))) (not (= x58 x36))))) (or (and (and (not (= x58 x14)) (and x130 (and (not (= x91 x20)) (and (not (= x106 x21)) (not (= x115 x147)))))) (and (and x130 (and (and (not (= x115 x92)) (not (= x41 x21))) (not (= x22 x91)))) (not (= x14 x23)))) (or (and (and (and (and x25 (and (not (= x101 x21)) (not (= x143 x115)))) (not (= x36 x22))) (not (= x14 x151))) (and (and (not (= x36 x20)) (and x25 (and (not (= x21 x111)) (not (= x115 x43))))) (not (= x97 x14)))) (or (and (and (not (= x14 x30)) (and (not (= x106 x36)) (and (and (not (= x38 x115)) x8) (not (= x101 x91))))) (and (and (not (= x36 x41)) (and (and (not (= x115 x5)) x8) (not (= x111 x91)))) (not (= x14 x135)))) (and (and (not (= x14 x76)) (and (and (not (= x43 x91)) (and x61 (not (= x38 x21)))) (not (= x92 x36)))) (and (not (= x14 x124)) (and (not (= x147 x36)) (and (not (= x91 x143)) (and x61 (not (= x5 x21)))))))))))))
(assert (not (and (= (x7 x14 x14) x21) (and (= (x7 x14 x36) x115) (and (= x91 (x7 x14 x91)) (and (= (x7 x14 x115) x36) (and (= x14 (x7 x14 x21)) (and (and (= (x7 x36 x36) x36) (and (= (x7 x36 x91) x14) (and (and (= x115 (x7 x36 x21)) (and (and (= (x7 x91 x36) x91) (and (and (= (x7 x91 x115) x14) (and (= (x7 x91 x21) x21) (and (and (= (x7 x115 x36) x14) (and (and (and (= (x7 x115 x21) x36) (and (and (= x21 (x7 x21 x36)) (and (and (= x91 (x7 x21 x21)) (= x115 (x7 x21 x115))) (= (x7 x21 x91) x36))) (= (x7 x21 x14) x14))) (= (x7 x115 x115) x91)) (= x21 (x7 x115 x91)))) (= x115 (x7 x115 x14))))) (= x115 (x7 x91 x91)))) (= x36 (x7 x91 x14)))) (= x21 (x7 x36 x115))))) (= x91 (x7 x36 x14))))))))))
(assert (let ((x8 (x7 x21 x21)) (x147 (x7 x36 x91)) (x25 (x7 x91 x91)) (x55 (x7 x14 x14)) (x22 (x7 x36 x115)) (x106 (x7 x115 x36)) (x61 (x7 x115 x115)) (x5 (x7 x115 x21)) (x20 (x7 x91 x36)) (x111 (x7 x91 x21)) (x130 (x7 x36 x36)) (x76 (x7 x21 x14)) (x101 (x7 x91 x115)) (x23 (x7 x36 x14)) (x41 (x7 x36 x21)) (x151 (x7 x14 x115)) (x97 (x7 x14 x36)) (x92 (x7 x21 x36)) (x38 (x7 x21 x115)) (x143 (x7 x115 x91)) (x58 (x7 x115 x14)) (x135 (x7 x14 x21)) (x124 (x7 x91 x14)) (x30 (x7 x14 x91)) (x43 (x7 x21 x91))) (and (and (and (or (or (or (not (= x25 x25)) (or (not (= x43 x111)) (not (= x101 x143)))) (not (= x20 x147))) (not (= x30 x124))) (and (or (not (= x135 x76)) (or (not (= x92 x41)) (or (or (not (= x8 x8)) (not (= x5 x38))) (not (= x43 x111))))) (or (or (not (= x106 x22)) (or (or (not (= x61 x61)) (not (= x5 x38))) (not (= x143 x101)))) (not (= x151 x58))))) (or (or (or (or (not (= x92 x41)) (not (= x22 x106))) (not (= x147 x20))) (not (= x130 x130))) (not (= x97 x23)))) (or (not (= x55 x55)) (or (or (not (= x30 x124)) (or (not (= x58 x151)) (not (= x135 x76)))) (not (= x97 x23)))))))
(assert (let ((x5 (x7 (x7 x115 x115) x115)) (x8 (x7 (x7 x21 x21) x21)) (x61 (x7 (x7 x36 x36) x36)) (x111 (x7 (x7 x14 x14) x14)) (x38 (x7 (x7 x91 x91) x91))) (or (and (and (and (and (not (= x14 x8)) (not (= x14 x5))) (not (= x38 x14))) (not (= x14 x61))) (not (= x14 x111))) (or (or (or (and (and (not (= x61 x21)) (and (and (not (= x21 x8)) (not (= x5 x21))) (not (= x21 x38)))) (not (= x111 x21))) (and (and (not (= x115 x61)) (and (and (not (= x8 x115)) (not (= x115 x5))) (not (= x38 x115)))) (not (= x115 x111)))) (and (not (= x111 x91)) (and (and (not (= x91 x38)) (and (not (= x5 x91)) (not (= x8 x91)))) (not (= x91 x61))))) (and (and (and (not (= x38 x36)) (and (not (= x36 x8)) (not (= x36 x5)))) (not (= x36 x61))) (not (= x111 x36)))))))
(assert (let ((x124 (x7 x115 x14)) (x98 (x7 x14 x115)) (x112 (x7 x14 x36)) (x64 (x7 x14 x14)) (x111 (x7 x21 x36)) (x43 (x7 x21 x14)) (x31 (x7 x91 x91)) (x25 (x7 x91 x21)) (x38 (x7 x21 x115)) (x58 (x7 x115 x91)) (x5 (x7 x21 x21)) (x30 (x7 x115 x36)) (x61 (x7 x21 x91)) (x41 (x7 x36 x21)) (x81 (x7 x36 x36)) (x139 (x7 x36 x14)) (x118 (x7 x36 x91)) (x24 (x7 x14 x91)) (x17 (x7 x91 x14)) (x143 (x7 x115 x21)) (x92 (x7 x14 x21)) (x121 (x7 x36 x115)) (x151 (x7 x115 x115)) (x158 (x7 x91 x36)) (x55 (x7 x91 x115))) (let ((x54 (= x36 x151)) (x77 (= x14 x158)) (x68 (= x36 x31)) (x110 (= x14 x38)) (x130 (= x38 x21)) (x32 (= x92 x14)) (x49 (= x124 x91)) (x1 (= x21 x58)) (x137 (= x25 x91)) (x71 (= x121 x21)) (x26 (= x124 x36)) (x63 (= x115 x64)) (x138 (= x21 x139)) (x44 (= x17 x91)) (x37 (= x41 x115)) (x146 (= x36 x58)) (x103 (= x36 x158)) (x134 (= x36 x24)) (x107 (= x14 x81)) (x83 (= x91 x139)) (x144 (= x115 x81)) (x12 (= x115 x31)) (x128 (= x14 x30)) (x16 (= x36 x17)) (x74 (= x58 x115)) (x35 (= x158 x115)) (x51 (= x115 x112)) (x100 (= x115 x124)) (x86 (= x30 x91)) (x23 (= x151 x115)) (x65 (= x111 x21)) (x148 (= x17 x21)) (x27 (= x91 x151)) (x105 (= x30 x36)) (x6 (= x121 x36)) (x156 (= x43 x36)) (x133 (= x55 x14)) (x153 (= x21 x118)) (x72 (= x61 x21)) (x108 (= x115 x24)) (x73 (= x158 x21)) (x113 (= x139 x115)) (x8 (= x21 x5)) (x80 (= x98 x115)) (x94 (= x139 x14)) (x140 (= x43 x115)) (x39 (= x21 x64)) (x19 (= x21 x25)) (x141 (= x36 x55)) (x70 (= x98 x14)) (x122 (= x58 x14)) (x29 (= x115 x17)) (x33 (= x91 x61)) (x53 (= x31 x14)) (x47 (= x91 x118)) (x154 (= x81 x91)) (x79 (= x36 x81)) (x20 (= x143 x21)) (x46 (= x36 x111)) (x125 (= x158 x91)) (x135 (= x151 x21)) (x85 (= x24 x21)) (x119 (= x58 x91)) (x48 (= x92 x115)) (x13 (= x55 x21)) (x67 (= x38 x91)) (x123 (= x21 x81)) (x57 (= x121 x91)) (x22 (= x5 x91)) (x60 (= x124 x14)) (x152 (= x61 x14)) (x89 (= x36 x64)) (x106 (= x36 x5)) (x149 (= x111 x91)) (x10 (= x21 x92)) (x126 (= x41 x36)) (x93 (= x91 x98)) (x90 (= x112 x21)) (x97 (= x115 x38)) (x45 (= x21 x30)) (x34 (= x121 x115)) (x9 (= x36 x118)) (x102 (= x91 x143)) (x56 (= x91 x41)) (x88 (= x98 x36)) (x157 (= x118 x14)) (x147 (= x14 x5)) (x117 (= x21 x98)) (x131 (= x14 x41)) (x155 (= x112 x91)) (x4 (= x14 x17)) (x40 (= x36 x92)) (x150 (= x115 x55)) (x82 (= x91 x43)) (x132 (= x25 x115)) (x84 (= x31 x21)) (x142 (= x43 x14)) (x66 (= x61 x115)) (x78 (= x25 x36)) (x101 (= x115 x5)) (x145 (= x124 x21)) (x69 (= x61 x36)) (x109 (= x14 x143)) (x96 (= x21 x43)) (x28 (= x31 x91)) (x59 (= x14 x121)) (x3 (= x115 x118)) (x87 (= x111 x115)) (x50 (= x112 x36)) (x52 (= x14 x64)) (x120 (= x14 x112)) (x114 (= x64 x91)) (x99 (= x36 x143)) (x2 (= x91 x92)) (x104 (= x91 x24)) (x116 (= x36 x139)) (x76 (= x115 x143)) (x136 (= x55 x91)) (x159 (= x151 x14)) (x75 (= x14 x24)) (x62 (= x25 x14)) (x42 (= x21 x41)) (x129 (= x111 x14)) (x18 (= x30 x115)) (x11 (= x38 x36))) (and (and (and (and (and (and (and (or (or (or x78 (or x99 x106)) x126) x40) (or (or (or x69 (or x11 x106)) x46) x156)) (and (and (or (or x149 (or (or x67 x22) x33)) x82) (or (or x56 (or (or x22 x102) x137)) x2)) (and (and (or x140 (or x87 (or (or x101 x97) x66))) (or (or (or (or x101 x76) x132) x37) x48)) (and (or (or x42 (or x19 (or x20 x8))) x10) (or (or x65 (or (or x130 x8) x72)) x96))))) (and (or (or (or x152 (or x147 x110)) x129) x142) (or (or x131 (or (or x109 x147) x62)) x32))) (and (and (or (or x128 (or x122 (or x159 x109))) x60) (or (or (or (or x110 x159) x133) x59) x70)) (and (and (and (or (or x57 (or (or x27 x67) x136)) x93) (or (or (or (or x27 x102) x119) x86) x49)) (and (and (or (or (or x13 (or x130 x135)) x71) x117) (or (or (or x1 (or x20 x135)) x45) x145)) (and (or x100 (or x18 (or x74 (or x23 x76)))) (or x80 (or (or x150 (or x23 x97)) x34))))) (and (or x26 (or x105 (or (or x99 x54) x146))) (or x88 (or (or (or x54 x11) x141) x6)))))) (and (and (or (or (or x53 (or x122 x152)) x157) x75) (or (or x77 (or (or x133 x62) x53)) x4)) (and (and (and (and (or (or x3 (or (or x66 x74) x12)) x108) (or (or (or x12 (or x132 x150)) x35) x29)) (and (or x85 (or (or (or x72 x1) x84) x153)) (or (or (or (or x13 x19) x84) x73) x148))) (and (or x44 (or (or (or x136 x137) x28) x125)) (or (or x47 (or (or x33 x119) x28)) x104))) (and (or (or (or (or x69 x146) x68) x9) x134) (or (or (or x68 (or x78 x141)) x103) x16))))) (and (and (or (or (or x157 (or x59 x131)) x107) x94) (or x120 (or x107 (or (or x129 x128) x77)))) (and (and (and (or x83 (or x154 (or x47 (or x57 x56)))) (or (or (or x125 (or x149 x86)) x154) x155)) (and (and (or x113 (or x144 (or (or x37 x34) x3))) (or (or x144 (or x35 (or x18 x87))) x51)) (and (or x138 (or x123 (or x153 (or x42 x71)))) (or x90 (or (or x73 (or x65 x45)) x123))))) (and (or (or (or x9 (or x6 x126)) x79) x116) (or x50 (or x79 (or x103 (or x46 x105)))))))) (and (and (or x52 (or (or (or x60 x142) x4) x94)) (or x52 (or x120 (or (or x32 x70) x75)))) (and (and (or (or (or (or x40 x88) x134) x50) x89) (or x89 (or x116 (or (or x156 x26) x16)))) (and (and (or x114 (or (or (or x49 x82) x44) x83)) (or (or (or (or x93 x2) x104) x155) x114)) (and (and (or x39 (or (or (or x96 x145) x148) x138)) (or x39 (or (or x85 (or x117 x10)) x90))) (and (or (or (or (or x100 x140) x29) x113) x63) (or (or x51 (or x108 (or x48 x80))) x63))))))))))
(assert (or (or (or (or (and (not (= (x7 (x7 x14 x21) x14) x21)) (and (and (and (not (= x21 (x7 (x7 x21 x21) x21))) (not (= (x7 (x7 x115 x21) x115) x21))) (not (= (x7 (x7 x91 x21) x91) x21))) (not (= x21 (x7 (x7 x36 x21) x36))))) (and (not (= (x7 (x7 x14 x115) x14) x115)) (and (and (and (not (= (x7 (x7 x21 x115) x21) x115)) (not (= (x7 (x7 x115 x115) x115) x115))) (not (= x115 (x7 (x7 x91 x115) x91)))) (not (= (x7 (x7 x36 x115) x36) x115))))) (and (and (and (and (not (= x91 (x7 (x7 x21 x91) x21))) (not (= x91 (x7 (x7 x115 x91) x115)))) (not (= x91 (x7 (x7 x91 x91) x91)))) (not (= (x7 (x7 x36 x91) x36) x91))) (not (= (x7 (x7 x14 x91) x14) x91)))) (and (not (= x36 (x7 (x7 x14 x36) x14))) (and (not (= (x7 (x7 x36 x36) x36) x36)) (and (and (not (= x36 (x7 (x7 x21 x36) x21))) (not (= (x7 (x7 x115 x36) x115) x36))) (not (= (x7 (x7 x91 x36) x91) x36)))))) (and (not (= (x7 (x7 x14 x14) x14) x14)) (and (and (not (= (x7 (x7 x91 x14) x91) x14)) (and (not (= (x7 (x7 x21 x14) x21) x14)) (not (= (x7 (x7 x115 x14) x115) x14)))) (not (= x14 (x7 (x7 x36 x14) x36)))))))
(assert (or (or (and (and (not (= (x7 (x7 x36 x36) x36) x36)) (and (and (not (= (x7 (x7 x21 x36) x36) x21)) (not (= (x7 (x7 x115 x36) x36) x115))) (not (= x91 (x7 (x7 x91 x36) x36))))) (not (= x14 (x7 (x7 x14 x36) x36)))) (or (and (not (= (x7 (x7 x14 x91) x91) x14)) (and (not (= x36 (x7 (x7 x36 x91) x91))) (and (and (not (= (x7 (x7 x21 x91) x91) x21)) (not (= (x7 (x7 x115 x91) x91) x115))) (not (= (x7 (x7 x91 x91) x91) x91))))) (or (and (and (not (= x36 (x7 (x7 x36 x115) x115))) (and (not (= (x7 (x7 x91 x115) x115) x91)) (and (not (= x115 (x7 (x7 x115 x115) x115))) (not (= x21 (x7 (x7 x21 x115) x115)))))) (not (= (x7 (x7 x14 x115) x115) x14))) (and (not (= x14 (x7 (x7 x14 x21) x21))) (and (and (and (not (= x21 (x7 (x7 x21 x21) x21))) (not (= x115 (x7 (x7 x115 x21) x21)))) (not (= (x7 (x7 x91 x21) x21) x91))) (not (= x36 (x7 (x7 x36 x21) x21)))))))) (and (and (and (not (= (x7 (x7 x91 x14) x14) x91)) (and (not (= (x7 (x7 x115 x14) x14) x115)) (not (= x21 (x7 (x7 x21 x14) x14))))) (not (= (x7 (x7 x36 x14) x14) x36))) (not (= x14 (x7 (x7 x14 x14) x14))))))
(assert (or (and (and (not (= (x7 x36 (x7 x14 x36)) x14)) (and (and (not (= (x7 x21 (x7 x14 x21)) x14)) (not (= (x7 x115 (x7 x14 x115)) x14))) (not (= x14 (x7 x91 (x7 x14 x91)))))) (not (= x14 (x7 x14 (x7 x14 x14))))) (or (or (and (not (= x91 (x7 x14 (x7 x91 x14)))) (and (not (= x91 (x7 x36 (x7 x91 x36)))) (and (not (= x91 (x7 x91 (x7 x91 x91)))) (and (not (= (x7 x115 (x7 x91 x115)) x91)) (not (= x91 (x7 x21 (x7 x91 x21)))))))) (or (and (and (and (and (not (= x115 (x7 x115 (x7 x115 x115)))) (not (= (x7 x21 (x7 x115 x21)) x115))) (not (= (x7 x91 (x7 x115 x91)) x115))) (not (= (x7 x36 (x7 x115 x36)) x115))) (not (= (x7 x14 (x7 x115 x14)) x115))) (and (not (= (x7 x14 (x7 x21 x14)) x21)) (and (not (= x21 (x7 x36 (x7 x21 x36)))) (and (and (not (= (x7 x115 (x7 x21 x115)) x21)) (not (= x21 (x7 x21 (x7 x21 x21))))) (not (= (x7 x91 (x7 x21 x91)) x21))))))) (and (not (= (x7 x14 (x7 x36 x14)) x36)) (and (and (not (= x36 (x7 x91 (x7 x36 x91)))) (and (not (= (x7 x115 (x7 x36 x115)) x36)) (not (= (x7 x21 (x7 x36 x21)) x36)))) (not (= x36 (x7 x36 (x7 x36 x36)))))))))
(assert (let ((x22 (x7 x91 x115)) (x76 (x7 x36 x91)) (x143 (x7 x115 x91)) (x135 (x7 x36 x115)) (x58 (x7 x36 x14)) (x111 (x7 x21 x14)) (x41 (x7 x115 x14)) (x106 (x7 x91 x91)) (x30 (x7 x14 x21)) (x92 (x7 x91 x21)) (x61 (x7 x21 x36)) (x147 (x7 x91 x36)) (x151 (x7 x36 x36)) (x124 (x7 x14 x115)) (x130 (x7 x36 x21)) (x23 (x7 x14 x36)) (x20 (x7 x91 x14)) (x8 (x7 x21 x21)) (x43 (x7 x115 x21)) (x25 (x7 x115 x36)) (x97 (x7 x14 x91)) (x38 (x7 x21 x91)) (x101 (x7 x115 x115)) (x5 (x7 x21 x115)) (x55 (x7 x14 x14))) (and (and (and (and (and (and (and (and (or (or (or (= x8 x91) (or (= x8 x115) (= x8 x21))) (= x36 x8)) (= x8 x14)) (or (= x5 x14) (or (= x36 x5) (or (= x5 x91) (or (= x5 x21) (= x115 x5)))))) (or (or (or (= x38 x91) (or (= x38 x115) (= x21 x38))) (= x36 x38)) (= x14 x38))) (or (or (or (= x91 x61) (or (= x61 x21) (= x61 x115))) (= x61 x36)) (= x61 x14))) (or (= x111 x14) (or (or (= x91 x111) (or (= x115 x111) (= x21 x111))) (= x111 x36)))) (and (or (= x41 x14) (or (= x36 x41) (or (or (= x41 x115) (= x41 x21)) (= x91 x41)))) (and (and (or (or (= x36 x143) (or (= x91 x143) (or (= x143 x115) (= x21 x143)))) (= x14 x143)) (and (or (= x14 x101) (or (= x36 x101) (or (= x91 x101) (or (= x101 x21) (= x101 x115))))) (or (= x43 x14) (or (= x43 x36) (or (= x43 x91) (or (= x43 x21) (= x115 x43))))))) (or (or (= x36 x25) (or (= x91 x25) (or (= x115 x25) (= x21 x25)))) (= x25 x14))))) (and (or (or (or (= x91 x20) (or (= x21 x20) (= x20 x115))) (= x20 x36)) (= x14 x20)) (and (or (= x147 x14) (or (= x36 x147) (or (= x147 x91) (or (= x115 x147) (= x21 x147))))) (and (or (or (= x36 x106) (or (or (= x106 x115) (= x21 x106)) (= x106 x91))) (= x106 x14)) (and (or (or (or (or (= x22 x115) (= x22 x21)) (= x91 x22)) (= x22 x36)) (= x14 x22)) (or (= x14 x92) (or (or (= x92 x91) (or (= x115 x92) (= x92 x21))) (= x36 x92)))))))) (and (and (and (and (or (or (= x36 x135) (or (= x91 x135) (or (= x135 x21) (= x115 x135)))) (= x135 x14)) (or (or (= x36 x130) (or (= x130 x91) (or (= x130 x21) (= x130 x115)))) (= x14 x130))) (or (= x76 x14) (or (= x76 x36) (or (or (= x76 x115) (= x21 x76)) (= x91 x76))))) (or (= x151 x14) (or (or (or (= x151 x115) (= x151 x21)) (= x91 x151)) (= x151 x36)))) (or (= x58 x14) (or (or (= x91 x58) (or (= x58 x21) (= x115 x58))) (= x36 x58))))) (and (and (and (or (or (or (= x91 x97) (or (= x115 x97) (= x21 x97))) (= x36 x97)) (= x14 x97)) (and (or (or (= x36 x30) (or (= x30 x91) (or (= x30 x21) (= x30 x115)))) (= x14 x30)) (or (or (= x36 x124) (or (or (= x124 x21) (= x115 x124)) (= x91 x124))) (= x14 x124)))) (or (= x23 x14) (or (= x36 x23) (or (= x23 x91) (or (= x115 x23) (= x21 x23)))))) (or (= x55 x14) (or (or (or (= x115 x55) (= x55 x21)) (= x55 x91)) (= x36 x55)))))))
(assert (or (or (or (or (and (not (= x14 (x7 x115 (x7 x115 x14)))) (and (not (= x36 (x7 x115 (x7 x115 x36)))) (and (not (= (x7 x115 (x7 x115 x91)) x91)) (and (not (= (x7 x115 (x7 x115 x115)) x115)) (not (= x21 (x7 x115 (x7 x115 x21)))))))) (and (not (= (x7 x21 (x7 x21 x14)) x14)) (and (and (and (not (= x21 (x7 x21 (x7 x21 x21)))) (not (= (x7 x21 (x7 x21 x115)) x115))) (not (= x91 (x7 x21 (x7 x21 x91))))) (not (= (x7 x21 (x7 x21 x36)) x36))))) (and (and (and (and (not (= x115 (x7 x91 (x7 x91 x115)))) (not (= (x7 x91 (x7 x91 x21)) x21))) (not (= (x7 x91 (x7 x91 x91)) x91))) (not (= x36 (x7 x91 (x7 x91 x36))))) (not (= (x7 x91 (x7 x91 x14)) x14)))) (and (not (= x14 (x7 x36 (x7 x36 x14)))) (and (not (= (x7 x36 (x7 x36 x36)) x36)) (and (not (= (x7 x36 (x7 x36 x91)) x91)) (and (not (= x21 (x7 x36 (x7 x36 x21)))) (not (= x115 (x7 x36 (x7 x36 x115))))))))) (and (not (= (x7 x14 (x7 x14 x14)) x14)) (and (not (= x36 (x7 x14 (x7 x14 x36)))) (and (and (not (= (x7 x14 (x7 x14 x115)) x115)) (not (= x21 (x7 x14 (x7 x14 x21))))) (not (= x91 (x7 x14 (x7 x14 x91)))))))))
(assert (and (and (not (= x14 x91)) (and (not (= x91 x36)) (and (not (= x115 x14)) (and (not (= x36 x115)) (and (and (and (not (= x21 x36)) (and (not (= x91 x21)) (not (= x21 x115)))) (not (= x14 x21))) (not (= x115 x91))))))) (not (= x14 x36))))
(assert (not (and (and (= x14 (x7 x14 x36)) (and (= x91 (x7 x14 x91)) (and (= (x7 x14 x115) x36) (and (= x21 (x7 x14 x21)) (and (and (= x36 (x7 x36 x36)) (and (= (x7 x36 x91) x14) (and (= x21 (x7 x36 x115)) (and (and (= (x7 x91 x14) x36) (and (and (= x115 (x7 x91 x91)) (and (and (= (x7 x91 x21) x91) (and (and (and (= x21 (x7 x115 x91)) (and (= (x7 x115 x115) x91) (and (and (and (and (and (= (x7 x21 x115) x115) (= (x7 x21 x21) x14)) (= (x7 x21 x91) x36)) (= (x7 x21 x36) x91)) (= x21 (x7 x21 x14))) (= x36 (x7 x115 x21))))) (= (x7 x115 x36) x115)) (= (x7 x115 x14) x14))) (= x14 (x7 x91 x115)))) (= x21 (x7 x91 x36)))) (= (x7 x36 x21) x115))))) (= (x7 x36 x14) x91)))))) (= (x7 x14 x14) x115))))
(assert (let ((x110 (x7 x14 x21)) (x67 (x7 x115 x21)) (x119 (x7 x14 x91)) (x33 (x7 x91 x14)) (x118 (x7 x91 x91)) (x11 (x7 x21 x36)) (x84 (x7 x91 x115)) (x121 (x7 x21 x21)) (x27 (x7 x21 x91)) (x132 (x7 x115 x36)) (x62 (x7 x36 x36)) (x31 (x7 x115 x14)) (x99 (x7 x91 x21)) (x1 (x7 x115 x91)) (x109 (x7 x21 x14)) (x102 (x7 x21 x115)) (x54 (x7 x36 x21)) (x122 (x7 x14 x36)) (x137 (x7 x91 x36)) (x150 (x7 x36 x115)) (x13 (x7 x115 x115)) (x158 (x7 x14 x115)) (x152 (x7 x36 x14)) (x136 (x7 x36 x91)) (x37 (x7 x14 x14))) (let ((x87 (= x13 x91)) (x104 (= x121 x14)) (x151 (= x158 x21)) (x144 (= x91 x84)) (x16 (= x136 x14)) (x156 (= x150 x14)) (x82 (= x102 x14)) (x32 (= x14 x110)) (x9 (= x91 x109)) (x35 (= x27 x91)) (x139 (= x102 x91)) (x34 (= x115 x37)) (x24 (= x118 x115)) (x72 (= x13 x115)) (x126 (= x62 x91)) (x96 (= x36 x118)) (x101 (= x84 x21)) (x40 (= x1 x14)) (x145 (= x54 x36)) (x83 (= x14 x27)) (x120 (= x31 x14)) (x141 (= x115 x150)) (x113 (= x36 x33)) (x149 (= x150 x91)) (x52 (= x14 x37)) (x80 (= x36 x137)) (x89 (= x62 x14)) (x25 (= x21 x118)) (x46 (= x158 x91)) (x75 (= x158 x14)) (x63 (= x122 x36)) (x6 (= x91 x110)) (x41 (= x54 x21)) (x81 (= x67 x91)) (x53 (= x115 x110)) (x68 (= x137 x115)) (x100 (= x36 x31)) (x97 (= x122 x21)) (x51 (= x36 x110)) (x103 (= x119 x91)) (x155 (= x14 x67)) (x88 (= x14 x118)) (x125 (= x91 x136)) (x157 (= x91 x37)) (x134 (= x54 x14)) (x5 (= x67 x21)) (x78 (= x115 x11)) (x94 (= x152 x14)) (x70 (= x109 x14)) (x69 (= x132 x115)) (x56 (= x91 x118)) (x112 (= x1 x91)) (x17 (= x115 x99)) (x148 (= x11 x36)) (x45 (= x115 x33)) (x76 (= x109 x21)) (x146 (= x115 x136)) (x59 (= x91 x152)) (x117 (= x36 x27)) (x3 (= x91 x121)) (x105 (= x91 x31)) (x74 (= x115 x84)) (x39 (= x132 x36)) (x111 (= x21 x99)) (x43 (= x21 x27)) (x22 (= x150 x21)) (x90 (= x36 x1)) (x4 (= x122 x14)) (x135 (= x21 x110)) (x108 (= x36 x62)) (x123 (= x152 x115)) (x142 (= x14 x119)) (x50 (= x11 x14)) (x106 (= x132 x21)) (x42 (= x115 x109)) (x86 (= x132 x91)) (x66 (= x27 x115)) (x29 (= x36 x119)) (x154 (= x137 x91)) (x65 (= x119 x115)) (x38 (= x102 x21)) (x12 (= x1 x115)) (x124 (= x21 x33)) (x58 (= x31 x21)) (x153 (= x115 x31)) (x61 (= x13 x21)) (x79 (= x33 x91)) (x55 (= x21 x37)) (x8 (= x121 x21)) (x44 (= x99 x14)) (x77 (= x36 x102)) (x107 (= x13 x36)) (x64 (= x36 x109)) (x2 (= x152 x36)) (x128 (= x36 x67)) (x143 (= x21 x1)) (x159 (= x115 x67)) (x73 (= x122 x115)) (x26 (= x14 x132)) (x18 (= x99 x91)) (x98 (= x121 x115)) (x49 (= x14 x13)) (x23 (= x21 x152)) (x60 (= x14 x33)) (x20 (= x21 x137)) (x133 (= x62 x115)) (x30 (= x21 x119)) (x48 (= x36 x136)) (x19 (= x115 x102)) (x57 (= x54 x91)) (x116 (= x14 x137)) (x93 (= x36 x37)) (x129 (= x121 x36)) (x85 (= x36 x84)) (x114 (= x84 x14)) (x92 (= x11 x21)) (x130 (= x21 x62)) (x47 (= x91 x11)) (x147 (= x136 x21)) (x71 (= x115 x158)) (x10 (= x99 x36)) (x28 (= x115 x54)) (x131 (= x91 x122)) (x138 (= x150 x36)) (x140 (= x158 x36))) (and (and (or (or (and x93 x93) (or (or (or (and x140 x100) (and x51 x64)) (and x29 x113)) (and x63 x2))) (or (or (or (or (or (or (and x90 x85) (or (and x77 x128) (and x107 x107))) (and x138 x39)) (and x100 x140)) (or (or (or (or (and x129 x129) (and x128 x77)) (and x117 x10)) (and x145 x148)) (and x51 x64))) (or (or (or (and x96 x96) (or (and x117 x10) (and x90 x85))) (and x80 x48)) (and x29 x113))) (or (and x63 x2) (or (and x108 x108) (or (or (and x39 x138) (and x145 x148)) (and x48 x80)))))) (and (and (or (or (or (or (or (or (and x28 x78) (and x141 x69)) (and x146 x68)) (and x133 x133)) (and x73 x123)) (or (or (or (or (or (and x12 x74) (or (and x72 x72) (and x19 x159))) (and x141 x69)) (and x153 x71)) (or (or (or (or (and x159 x19) (and x98 x98)) (and x17 x66)) (and x78 x28)) (and x53 x42))) (or (or (and x146 x68) (or (or (and x17 x66) (and x12 x74)) (and x24 x24))) (and x45 x65)))) (or (and x34 x34) (or (and x73 x123) (or (or (and x71 x153) (and x53 x42)) (and x45 x65))))) (or (or (and x55 x55) (or (and x97 x23) (or (or (and x76 x135) (and x58 x151)) (and x124 x30)))) (or (or (and x97 x23) (or (and x130 x130) (or (and x147 x20) (or (and x22 x106) (and x92 x41))))) (or (or (or (and x76 x135) (or (or (and x43 x111) (or (and x5 x38) (and x8 x8))) (and x41 x92))) (or (and x58 x151) (or (and x106 x22) (or (or (and x5 x38) (and x61 x61)) (and x101 x143))))) (or (or (or (and x25 x25) (or (and x43 x111) (and x101 x143))) (and x20 x147)) (and x124 x30)))))) (or (or (or (and x131 x59) (or (and x126 x126) (or (or (and x149 x86) (and x47 x57)) (and x125 x154)))) (or (or (or (or (or (or (and x139 x81) (and x3 x3)) (and x35 x18)) (and x47 x57)) (and x6 x9)) (or (and x105 x46) (or (and x86 x149) (or (and x112 x144) (or (and x87 x87) (and x139 x81)))))) (or (and x79 x103) (or (or (or (and x112 x144) (and x18 x35)) (and x56 x56)) (and x154 x125))))) (or (and x157 x157) (or (or (or (and x9 x6) (and x46 x105)) (and x79 x103)) (and x131 x59)))))) (or (or (or (or (or (or (or (or (and x155 x82) (and x49 x49)) (and x114 x40)) (and x26 x156)) (and x75 x120)) (or (and x70 x32) (or (and x134 x50) (or (or (and x155 x82) (and x104 x104)) (and x83 x44))))) (or (and x142 x60) (or (and x116 x16) (or (or (and x83 x44) (and x114 x40)) (and x88 x88))))) (or (or (or (and x116 x16) (or (and x50 x134) (and x156 x26))) (and x89 x89)) (and x4 x94))) (or (and x52 x52) (or (and x4 x94) (or (or (and x32 x70) (and x120 x75)) (and x60 x142)))))))))
(assert (or (or (= x36 (x7 x36 x36)) (or (or (= x21 (x7 x21 x21)) (= (x7 x115 x115) x115)) (= x91 (x7 x91 x91)))) (= x14 (x7 x14 x14))))
(assert (let ((x102 (x7 x21 x115)) (x119 (x7 x14 x91)) (x1 (x7 x115 x91)) (x67 (x7 x115 x21)) (x13 (x7 x115 x115)) (x27 (x7 x21 x91)) (x84 (x7 x91 x115)) (x152 (x7 x36 x14)) (x54 (x7 x36 x21)) (x150 (x7 x36 x115)) (x37 (x7 x14 x14)) (x118 (x7 x91 x91)) (x33 (x7 x91 x14)) (x31 (x7 x115 x14)) (x158 (x7 x14 x115)) (x121 (x7 x21 x21)) (x122 (x7 x14 x36)) (x11 (x7 x21 x36)) (x137 (x7 x91 x36)) (x132 (x7 x115 x36)) (x110 (x7 x14 x21)) (x136 (x7 x36 x91)) (x99 (x7 x91 x21)) (x109 (x7 x21 x14)) (x62 (x7 x36 x36))) (let ((x73 (= x115 x122)) (x56 (= x91 x118)) (x107 (= x13 x36)) (x20 (= x137 x21)) (x76 (= x21 x109)) (x43 (= x21 x27)) (x24 (= x115 x118)) (x30 (= x21 x119)) (x51 (= x110 x36)) (x17 (= x115 x99)) (x111 (= x21 x99)) (x104 (= x121 x14)) (x103 (= x119 x91)) (x3 (= x121 x91)) (x128 (= x67 x36)) (x149 (= x150 x91)) (x50 (= x14 x11)) (x138 (= x36 x150)) (x147 (= x136 x21)) (x45 (= x33 x115)) (x83 (= x27 x14)) (x46 (= x91 x158)) (x78 (= x11 x115)) (x131 (= x91 x122)) (x26 (= x132 x14)) (x42 (= x109 x115)) (x72 (= x13 x115)) (x129 (= x121 x36)) (x25 (= x21 x118)) (x116 (= x137 x14)) (x96 (= x36 x118)) (x146 (= x136 x115)) (x145 (= x36 x54)) (x139 (= x102 x91)) (x89 (= x62 x14)) (x75 (= x14 x158)) (x23 (= x152 x21)) (x87 (= x13 x91)) (x151 (= x158 x21)) (x9 (= x91 x109)) (x68 (= x137 x115)) (x66 (= x115 x27)) (x92 (= x21 x11)) (x124 (= x33 x21)) (x154 (= x137 x91)) (x22 (= x21 x150)) (x148 (= x11 x36)) (x41 (= x54 x21)) (x117 (= x36 x27)) (x40 (= x14 x1)) (x123 (= x152 x115)) (x32 (= x14 x110)) (x141 (= x150 x115)) (x134 (= x54 x14)) (x58 (= x31 x21)) (x106 (= x21 x132)) (x126 (= x62 x91)) (x8 (= x121 x21)) (x4 (= x14 x122)) (x130 (= x21 x62)) (x113 (= x33 x36)) (x101 (= x21 x84)) (x82 (= x14 x102)) (x90 (= x36 x1)) (x55 (= x37 x21)) (x100 (= x36 x31)) (x156 (= x14 x150)) (x71 (= x115 x158)) (x65 (= x115 x119)) (x5 (= x21 x67)) (x86 (= x91 x132)) (x97 (= x122 x21)) (x6 (= x91 x110)) (x39 (= x36 x132)) (x16 (= x14 x136)) (x47 (= x91 x11)) (x19 (= x102 x115)) (x85 (= x84 x36)) (x120 (= x14 x31)) (x143 (= x1 x21)) (x44 (= x99 x14)) (x155 (= x14 x67)) (x48 (= x136 x36)) (x133 (= x115 x62)) (x79 (= x91 x33)) (x142 (= x14 x119)) (x80 (= x36 x137)) (x135 (= x21 x110)) (x12 (= x1 x115)) (x94 (= x152 x14)) (x114 (= x84 x14)) (x59 (= x152 x91)) (x2 (= x152 x36)) (x64 (= x36 x109)) (x77 (= x36 x102)) (x157 (= x37 x91)) (x10 (= x36 x99)) (x125 (= x136 x91)) (x18 (= x99 x91)) (x57 (= x54 x91)) (x159 (= x115 x67)) (x69 (= x115 x132)) (x144 (= x84 x91)) (x70 (= x14 x109)) (x38 (= x21 x102)) (x34 (= x37 x115)) (x35 (= x27 x91)) (x74 (= x84 x115)) (x61 (= x13 x21)) (x28 (= x115 x54)) (x140 (= x158 x36)) (x88 (= x14 x118)) (x105 (= x91 x31)) (x108 (= x36 x62)) (x93 (= x36 x37)) (x53 (= x115 x110)) (x112 (= x1 x91)) (x49 (= x13 x14)) (x60 (= x33 x14)) (x153 (= x31 x115)) (x98 (= x115 x121)) (x29 (= x36 x119)) (x63 (= x122 x36)) (x81 (= x67 x91)) (x52 (= x14 x37))) (and (and (and (or (or (or (and (not x131) x59) (or (and x126 (not x126)) (or (and x125 (not x154)) (or (and x57 (not x47)) (and (not x86) x149))))) (or (or (or (or (or (or (and x87 (not x87)) (and (not x139) x81)) (and (not x144) x112)) (and x86 (not x149))) (and x105 (not x46))) (or (and x9 (not x6)) (or (and (not x57) x47) (or (or (and (not x81) x139) (and (not x3) x3)) (and (not x18) x35))))) (or (and (not x103) x79) (or (and (not x125) x154) (or (and x56 (not x56)) (or (and x144 (not x112)) (and (not x35) x18))))))) (or (or (or (or (and (not x9) x6) (and x46 (not x105))) (and x103 (not x79))) (and (not x59) x131)) (and (not x157) x157))) (and (or (or (or (and (not x23) x97) (or (and (not x124) x30) (or (and (not x76) x135) (and (not x58) x151)))) (and (not x55) x55)) (or (or (or (and x130 (not x130)) (or (and x147 (not x20)) (or (and (not x106) x22) (and (not x92) x41)))) (and (not x97) x23)) (or (or (or (and (not x147) x20) (or (and x25 (not x25)) (or (and x101 (not x143)) (and (not x43) x111)))) (and x124 (not x30))) (or (or (or (and (not x41) x92) (or (or (and x8 (not x8)) (and x38 (not x5))) (and (not x111) x43))) (and x76 (not x135))) (or (or (or (or (and (not x61) x61) (and (not x38) x5)) (and x143 (not x101))) (and (not x22) x106)) (and (not x151) x58)))))) (or (or (or (or (or (or (or (or (and x72 (not x72)) (and (not x19) x159)) (and x12 (not x74))) (and (not x141) x69)) (and x153 (not x71))) (or (or (or (or (and (not x98) x98) (and (not x159) x19)) (and (not x17) x66)) (and (not x28) x78)) (and x42 (not x53)))) (or (or (and x68 (not x146)) (or (and x24 (not x24)) (or (and x17 (not x66)) (and x74 (not x12))))) (and (not x65) x45))) (or (or (or (or (and (not x78) x28) (and (not x69) x141)) (and x146 (not x68))) (and x133 (not x133))) (and x123 (not x73)))) (or (and (not x34) x34) (or (and x73 (not x123)) (or (and x65 (not x45)) (or (and (not x153) x71) (and (not x42) x53)))))))) (or (or (or (or (or (and (not x64) x51) (and x140 (not x100))) (and (not x113) x29)) (and x63 (not x2))) (and x93 (not x93))) (or (or (or (or (or (and (not x96) x96) (or (and x85 (not x90)) (and (not x117) x10))) (and x80 (not x48))) (and x113 (not x29))) (or (or (and x64 (not x51)) (or (and (not x145) x148) (or (and x117 (not x10)) (or (and (not x129) x129) (and x77 (not x128)))))) (or (and x100 (not x140)) (or (and x39 (not x138)) (or (or (and (not x107) x107) (and x128 (not x77))) (and (not x85) x90)))))) (or (or (and (not x108) x108) (or (and x48 (not x80)) (or (and x145 (not x148)) (and x138 (not x39))))) (and x2 (not x63)))))) (or (or (or (or (or (or (or (and x83 (not x44)) (or (and (not x104) x104) (and (not x155) x82))) (and (not x134) x50)) (and (not x32) x70)) (or (or (or (and x40 (not x114)) (or (and (not x82) x155) (and x49 (not x49)))) (and x26 (not x156))) (and x120 (not x75)))) (or (and (not x142) x60) (or (or (or (and (not x40) x114) (and (not x83) x44)) (and (not x88) x88)) (and x116 (not x16))))) (or (or (or (and (not x116) x16) (or (and (not x26) x156) (and (not x50) x134))) (and (not x89) x89)) (and (not x4) x94))) (or (and (not x52) x52) (or (or (and x142 (not x60)) (or (and x75 (not x120)) (and x32 (not x70)))) (and (not x94) x4))))))))
(assert (let ((x55 (x7 x14 x14)) (x30 (x7 x21 x14)) (x25 (x7 x36 x115)) (x92 (x7 x21 x91)) (x143 (x7 x91 x115)) (x20 (x7 x14 x91)) (x43 (x7 x21 x115)) (x8 (x7 x21 x21)) (x135 (x7 x115 x36)) (x111 (x7 x14 x21)) (x58 (x7 x14 x36)) (x23 (x7 x36 x14)) (x130 (x7 x21 x36)) (x22 (x7 x115 x91)) (x101 (x7 x115 x115)) (x151 (x7 x36 x36)) (x76 (x7 x91 x36)) (x97 (x7 x91 x14)) (x124 (x7 x115 x14)) (x5 (x7 x115 x21)) (x147 (x7 x36 x91)) (x38 (x7 x91 x21)) (x41 (x7 x14 x115)) (x61 (x7 x36 x21)) (x106 (x7 x91 x91))) (and (and (and (not (= x55 x23)) (and (not (= x97 x55)) (and (and (not (= x55 x124)) (and (not (= x124 x23)) (and (and (not (= x55 x30)) (and (not (= x23 x30)) (and (not (= x97 x30)) (not (= x30 x124))))) (not (= x97 x124))))) (not (= x23 x97))))) (and (and (not (= x151 x58)) (and (and (and (not (= x58 x135)) (and (not (= x135 x151)) (and (not (= x76 x135)) (and (not (= x58 x130)) (and (not (= x130 x151)) (and (not (= x135 x130)) (not (= x130 x76)))))))) (not (= x151 x76))) (not (= x58 x76)))) (and (and (and (and (and (and (not (= x22 x147)) (and (and (not (= x92 x20)) (and (and (not (= x106 x92)) (not (= x92 x22))) (not (= x147 x92)))) (not (= x22 x106)))) (not (= x22 x20))) (not (= x106 x147))) (not (= x20 x106))) (not (= x147 x20))) (and (and (and (and (not (= x143 x25)) (and (and (not (= x101 x25)) (and (and (not (= x41 x43)) (and (not (= x43 x25)) (and (not (= x101 x43)) (not (= x143 x43))))) (not (= x143 x101)))) (not (= x101 x41)))) (not (= x143 x41))) (not (= x41 x25))) (and (and (and (and (not (= x111 x5)) (and (and (not (= x5 x38)) (and (and (and (not (= x38 x8)) (not (= x5 x8))) (not (= x61 x8))) (not (= x111 x8)))) (not (= x5 x61)))) (not (= x38 x61))) (not (= x111 x38))) (not (= x111 x61))))))) (and (and (and (and (not (= x76 x97)) (and (and (not (= x106 x76)) (and (not (= x143 x97)) (and (not (= x76 x143)) (and (not (= x143 x106)) (and (and (and (not (= x143 x38)) (not (= x106 x38))) (not (= x76 x38))) (not (= x97 x38))))))) (not (= x106 x97)))) (and (and (and (and (not (= x22 x135)) (and (and (and (and (not (= x124 x5)) (and (not (= x5 x135)) (and (not (= x5 x22)) (not (= x101 x5))))) (not (= x101 x22))) (not (= x135 x101))) (not (= x101 x124)))) (not (= x22 x124))) (not (= x124 x135))) (and (and (not (= x30 x92)) (and (not (= x130 x92)) (and (and (not (= x43 x130)) (and (and (and (and (not (= x8 x92)) (not (= x43 x8))) (not (= x130 x8))) (not (= x8 x30))) (not (= x43 x92)))) (not (= x43 x30))))) (not (= x130 x30))))) (and (not (= x151 x23)) (and (not (= x147 x23)) (and (not (= x151 x147)) (and (and (and (not (= x25 x147)) (and (and (and (not (= x61 x147)) (not (= x61 x25))) (not (= x61 x151))) (not (= x61 x23)))) (not (= x25 x151))) (not (= x25 x23))))))) (and (and (not (= x20 x55)) (and (not (= x58 x20)) (and (not (= x41 x55)) (and (not (= x41 x58)) (and (not (= x41 x20)) (and (and (not (= x58 x111)) (and (not (= x111 x41)) (not (= x20 x111)))) (not (= x55 x111)))))))) (not (= x55 x58)))))))
(assert (and (and (or (= (x7 (x7 x36 x14) x36) x14) (or (= (x7 (x7 x36 x36) x36) x36) (or (= x91 (x7 (x7 x36 x91) x36)) (or (= (x7 (x7 x36 x21) x36) x21) (= (x7 (x7 x36 x115) x36) x115))))) (and (and (or (= x14 (x7 (x7 x21 x14) x21)) (or (= x36 (x7 (x7 x21 x36) x21)) (or (= x91 (x7 (x7 x21 x91) x21)) (or (= (x7 (x7 x21 x115) x21) x115) (= x21 (x7 (x7 x21 x21) x21)))))) (or (= (x7 (x7 x115 x14) x115) x14) (or (= x36 (x7 (x7 x115 x36) x115)) (or (= (x7 (x7 x115 x91) x115) x91) (or (= (x7 (x7 x115 x115) x115) x115) (= (x7 (x7 x115 x21) x115) x21)))))) (or (= x14 (x7 (x7 x91 x14) x91)) (or (or (or (= x115 (x7 (x7 x91 x115) x91)) (= (x7 (x7 x91 x21) x91) x21)) (= (x7 (x7 x91 x91) x91) x91)) (= x36 (x7 (x7 x91 x36) x91)))))) (or (or (or (= x91 (x7 (x7 x14 x91) x14)) (or (= x21 (x7 (x7 x14 x21) x14)) (= x115 (x7 (x7 x14 x115) x14)))) (= (x7 (x7 x14 x36) x14) x36)) (= x14 (x7 (x7 x14 x14) x14)))))
(assert (let ((x25 (= x36 (x7 x36 x36))) (x41 (= (x7 x14 x14) x14)) (x8 (= (x7 x21 x21) x21)) (x38 (= (x7 x115 x115) x115)) (x143 (= (x7 x91 x91) x91))) (let ((x101 (not x41)) (x5 (not x8)) (x61 (not x38)) (x111 (not x143)) (x43 (not x25))) (or (or (or (or (or (and x43 (= (x7 x91 x36) x91)) (or (and x143 x111) (or (and x61 (= (x7 x91 x115) x91)) (and x5 (= (x7 x91 x21) x91))))) (and (= (x7 x91 x14) x91) x101)) (or (or (and x101 (= x115 (x7 x115 x14))) (or (or (or (and x5 (= x115 (x7 x115 x21))) (and x38 x61)) (and x111 (= (x7 x115 x91) x115))) (and x43 (= (x7 x115 x36) x115)))) (or (or (and x43 (= x21 (x7 x21 x36))) (or (and (= x21 (x7 x21 x91)) x111) (or (and x5 x8) (and (= x21 (x7 x21 x115)) x61)))) (and (= (x7 x21 x14) x21) x101)))) (or (or (and x25 x43) (or (or (and x5 (= x36 (x7 x36 x21))) (and x61 (= (x7 x36 x115) x36))) (and (= x36 (x7 x36 x91)) x111))) (and (= (x7 x36 x14) x36) x101))) (or (and x41 x101) (or (and (= (x7 x14 x36) x14) x43) (or (or (and x5 (= (x7 x14 x21) x14)) (and (= x14 (x7 x14 x115)) x61)) (and x111 (= (x7 x14 x91) x14)))))))))
(assert (or (and (and (and (= x91 (x7 x14 (x7 x14 x91))) (and (= x21 (x7 x14 (x7 x14 x21))) (= (x7 x14 (x7 x14 x115)) x115))) (= x36 (x7 x14 (x7 x14 x36)))) (= x14 (x7 x14 (x7 x14 x14)))) (or (or (and (and (and (= (x7 x91 (x7 x91 x91)) x91) (and (= (x7 x91 (x7 x91 x21)) x21) (= x115 (x7 x91 (x7 x91 x115))))) (= x36 (x7 x91 (x7 x91 x36)))) (= x14 (x7 x91 (x7 x91 x14)))) (or (and (= (x7 x21 (x7 x21 x14)) x14) (and (= (x7 x21 (x7 x21 x36)) x36) (and (and (= (x7 x21 (x7 x21 x21)) x21) (= (x7 x21 (x7 x21 x115)) x115)) (= x91 (x7 x21 (x7 x21 x91)))))) (and (and (= (x7 x115 (x7 x115 x36)) x36) (and (and (= x115 (x7 x115 (x7 x115 x115))) (= x21 (x7 x115 (x7 x115 x21)))) (= x91 (x7 x115 (x7 x115 x91))))) (= x14 (x7 x115 (x7 x115 x14)))))) (and (and (and (= (x7 x36 (x7 x36 x91)) x91) (and (= x21 (x7 x36 (x7 x36 x21))) (= (x7 x36 (x7 x36 x115)) x115))) (= x36 (x7 x36 (x7 x36 x36)))) (= x14 (x7 x36 (x7 x36 x14)))))))
(assert (let ((x61 (x7 x36 x36)) (x111 (x7 x14 x14)) (x38 (x7 x91 x91)) (x5 (x7 x115 x115)) (x8 (x7 x21 x21))) (or (and (not (= x14 x111)) (and (not (= x61 x14)) (and (and (not (= x8 x14)) (not (= x14 x5))) (not (= x14 x38))))) (or (or (and (not (= x91 x111)) (and (and (and (not (= x91 x8)) (not (= x5 x91))) (not (= x91 x38))) (not (= x91 x61)))) (or (and (not (= x111 x115)) (and (and (not (= x38 x115)) (and (not (= x5 x115)) (not (= x115 x8)))) (not (= x61 x115)))) (and (and (and (not (= x21 x38)) (and (not (= x21 x8)) (not (= x5 x21)))) (not (= x61 x21))) (not (= x21 x111))))) (and (not (= x36 x111)) (and (not (= x61 x36)) (and (not (= x36 x38)) (and (not (= x8 x36)) (not (= x36 x5))))))))))
(assert (and (and (= (x7 x91 x14) x36) (and (= (x7 x36 x115) x21) (= (x7 x115 x115) x91))) (= (x7 x91 x115) x14)))
(assert (let ((x22 (x7 x91 x115)) (x124 (x7 x14 x115)) (x5 (x7 x21 x115)) (x23 (x7 x14 x36)) (x92 (x7 x91 x21)) (x101 (x7 x115 x115)) (x20 (x7 x91 x14)) (x111 (x7 x21 x14)) (x43 (x7 x115 x21)) (x55 (x7 x14 x14)) (x38 (x7 x21 x91)) (x58 (x7 x36 x14)) (x25 (x7 x115 x36)) (x8 (x7 x21 x21)) (x143 (x7 x115 x91)) (x135 (x7 x36 x115)) (x130 (x7 x36 x21)) (x76 (x7 x36 x91)) (x147 (x7 x91 x36)) (x61 (x7 x21 x36)) (x151 (x7 x36 x36)) (x41 (x7 x115 x14)) (x30 (x7 x14 x21)) (x106 (x7 x91 x91)) (x97 (x7 x14 x91))) (or (or (and (and (not (= x36 (x7 x151 x151))) (and (and (not (= (x7 x135 x135) x115)) (not (= (x7 x130 x130) x21))) (not (= (x7 x76 x76) x91)))) (not (= x14 (x7 x58 x58)))) (or (and (not (= (x7 x20 x20) x14)) (and (not (= x36 (x7 x147 x147))) (and (and (not (= x115 (x7 x22 x22))) (not (= x21 (x7 x92 x92)))) (not (= (x7 x106 x106) x91))))) (or (and (not (= x14 (x7 x41 x41))) (and (not (= x36 (x7 x25 x25))) (and (and (not (= (x7 x101 x101) x115)) (not (= (x7 x43 x43) x21))) (not (= (x7 x143 x143) x91))))) (and (and (and (not (= (x7 x38 x38) x91)) (and (not (= (x7 x8 x8) x21)) (not (= (x7 x5 x5) x115)))) (not (= x36 (x7 x61 x61)))) (not (= (x7 x111 x111) x14)))))) (and (and (not (= (x7 x23 x23) x36)) (and (and (not (= x21 (x7 x30 x30))) (not (= x115 (x7 x124 x124)))) (not (= x91 (x7 x97 x97))))) (not (= (x7 x55 x55) x14))))))
(check-sat)
(exit)
